; Copyright (c) 2026 The RIINA Authors. All rights reserved.
; Copyright (c) 2026 The RIINA Authors.
; Auto-generated from 02_FORMAL/coq/domains/NetworkDefense.v (43 assertions)
; Generated by scripts/generate-full-stack.py
; Module: NetworkDefense

(set-logic ALL)
(set-option :produce-models true)

; NetPerm (matches Coq: Inductive NetPerm)
(declare-datatypes ((NetPerm 0)) (((NPSend) (NPReceive) (NPListen) (NPConnect))))

; NetworkAction (matches Coq: Inductive NetworkAction)
(declare-datatypes ((NetworkAction 0)) (((NASend) (NAReceive) (NAConnect) (NAListen))))

; SimpleRegex (matches Coq: Inductive SimpleRegex)
(declare-datatypes ((SimpleRegex 0)) (((RChar) (RSeq) (RAlt) (RStar))))

; Puzzle (matches Coq: Record Puzzle)
(declare-datatypes ((Puzzle 0))
  (((mk-puzzle (puzzle_challenge list) (puzzle_difficulty Int) (puzzle_timestamp Int) (puzzle_server_nonce list)))))

; Solution (matches Coq: Record Solution)
(declare-datatypes ((Solution 0))
  (((mk-solution (sol_puzzle Puzzle) (sol_client_nonce list)))))

; TokenBucket (matches Coq: Record TokenBucket)
(declare-datatypes ((TokenBucket 0))
  (((mk-token_bucket (bucket_tokens Int) (bucket_max Int) (bucket_refill_rate Int) (bucket_last_refill Int)))))

; ClientBucket (matches Coq: Record ClientBucket)
(declare-datatypes ((ClientBucket 0))
  (((mk-client_bucket (cb_client ClientId) (cb_bucket TokenBucket)))))

; Endpoint (matches Coq: Record Endpoint)
(declare-datatypes ((Endpoint 0))
  (((mk-endpoint (ep_ip Int) (ep_port Int)))))

; NetCapability (matches Coq: Record NetCapability)
(declare-datatypes ((NetCapability 0))
  (((mk-net_capability (cap_target Endpoint) (cap_permissions list) (cap_valid_until Int) (cap_signature list) (cap_issuer Int)))))

; Connection (matches Coq: Record Connection)
(declare-datatypes ((Connection 0))
  (((mk-connection (conn_src_ip Int) (conn_src_port Int) (conn_dst_ip Int) (conn_dst_port Int)))))

; SynFloodState (matches Coq: Record SynFloodState)
(declare-datatypes ((SynFloodState 0))
  (((mk-syn_flood_state (sfs_pending_connections Int) (sfs_completed_connections Int) (sfs_dropped_connections Int)))))

; SipHashTable (matches Coq: Record SipHashTable)
(declare-datatypes ((SipHashTable 0))
  (((mk-sip_hash_table (sht_key list) (sht_buckets list) (sht_size Int)))))

; valid_solution (matches Coq: Definition valid_solution)
(define-fun valid_solution ((sol Solution)) Bool
  true)

; expected_work (matches Coq: Definition expected_work)
(define-fun expected_work ((p Puzzle)) Int
  Nat)

; verification_cost (matches Coq: Definition verification_cost)
(define-fun verification_cost ((sol Solution)) Int
  1)

; puzzle_expired (matches Coq: Definition puzzle_expired)
(define-fun puzzle_expired ((p Puzzle) (current_time Int) (max_age Int)) Bool
  Nat)

; work_is_sequential (matches Coq: Definition work_is_sequential)
(define-fun work_is_sequential ((p Puzzle)) Prop
  true)

; server_state_pre_verify (matches Coq: Definition server_state_pre_verify)
(define-fun server_state_pre_verify () Int 0)

; server_work (matches Coq: Definition server_work)
(define-fun server_work ((sol Solution)) Int
  1)

; client_work (matches Coq: Definition client_work)
(define-fun client_work ((p Puzzle)) Int
  (expected_work p))

; refill (matches Coq: Definition refill)
(define-fun refill ((tb TokenBucket) (now Int)) TokenBucket
  true)

; requests_allowed (matches Coq: Definition requests_allowed)
(define-fun requests_allowed ((tb TokenBucket) (window Int)) Int
  true)

; bucket_valid (matches Coq: Definition bucket_valid)
(define-fun bucket_valid ((tb TokenBucket)) Prop
  true)

; fair_share (matches Coq: Definition fair_share)
(define-fun fair_share ((total_rate Int) (n_clients Int)) Int
  true)

; allocation_fair (matches Coq: Definition allocation_fair)
(define-fun allocation_fair ((total Int)) Prop
  true)

; no_starvation_prop (matches Coq: Definition no_starvation_prop)
(define-fun no_starvation_prop ((tb TokenBucket) (time_bound Int)) Prop
  true)

; adaptive_rate (matches Coq: Definition adaptive_rate)
(define-fun adaptive_rate ((current_load Int) (max_capacity Int) (base_rate Int)) Int
  true)

; compose_limits (matches Coq: Definition compose_limits)
(define-fun compose_limits () TokenBucket true)

; endpoint_eq (matches Coq: Definition endpoint_eq)
(define-fun endpoint_eq () Bool Nat)

; netperm_eq (matches Coq: Definition netperm_eq)
(define-fun netperm_eq () Bool true)

; verify_signature (matches Coq: Definition verify_signature)
(define-fun verify_signature ((cap NetCapability)) Bool
  true)

; cap_valid (matches Coq: Definition cap_valid)
(define-fun cap_valid ((cap NetCapability) (now Int)) Bool
  Nat)

; grants_access (matches Coq: Definition grants_access)
(define-fun grants_access ((cap NetCapability) (target Endpoint) (perm NetPerm)) Bool
  true)

; cap_revoked (matches Coq: Definition cap_revoked)
(define-fun cap_revoked ((cap NetCapability) (revoked RevocationList)) Bool
  true)

; action_to_perm (matches Coq: Definition action_to_perm)
(define-fun action_to_perm ((a NetworkAction)) NetPerm
  true)

; action_target (matches Coq: Definition action_target)
(define-fun action_target ((a NetworkAction)) Endpoint
  true)

; amplification_factor (matches Coq: Definition amplification_factor)
(define-fun amplification_factor () Int true)

; safe_amplification (matches Coq: Definition safe_amplification)
(define-fun safe_amplification () Int 10)

; hash_to_nat (matches Coq: Definition hash_to_nat)
(define-fun hash_to_nat () Int true)

; syn_cookie (matches Coq: Definition syn_cookie)
(define-fun syn_cookie ((secret SynSecret) (conn Connection) (time Int)) Int
  true)

; verify_syn_cookie (matches Coq: Definition verify_syn_cookie)
(define-fun verify_syn_cookie ((secret SynSecret) (conn Connection) (cookie Int) (now Int)) Bool
  true)

; syn_cookie_state_required (matches Coq: Definition syn_cookie_state_required)
(define-fun syn_cookie_state_required () Int 0)

; syn_cookie_memory_usage (matches Coq: Definition syn_cookie_memory_usage)
(define-fun syn_cookie_memory_usage ((num_pending Int)) Int
  0)

; siphash (matches Coq: Definition siphash)
(define-fun siphash () Int true)

; max_bucket_size (matches Coq: Definition max_bucket_size)
(define-fun max_bucket_size ((ht SipHashTable)) Int
  true)

; adaptive_difficulty (matches Coq: Definition adaptive_difficulty)
(define-fun adaptive_difficulty ((base Int) (load Int) (capacity Int)) Int
  true)

; is_reflection_safe (matches Coq: Definition is_reflection_safe)
(define-fun is_reflection_safe ((cap NetCapability)) Bool
  true)

; list_eq_dec_refl (matches Coq: Lemma list_eq_dec_refl)
(assert (= true true)) ; list_eq_dec_refl [untranslatable]

; Nat_eqb_refl (matches Coq: Lemma Nat_eqb_refl)
(assert (= true true)) ; Nat_eqb_refl [untranslatable]

; min_le_l (matches Coq: Lemma min_le_l)
(assert (= true true)) ; min_le_l [untranslatable]

; min_le_r (matches Coq: Lemma min_le_r)
(assert (= true true)) ; min_le_r [untranslatable]

; forallb_impl (matches Coq: Lemma forallb_impl)
(assert (= true true)) ; forallb_impl [untranslatable]

; existsb_exists (matches Coq: Lemma existsb_exists)
(assert (= true true)) ; existsb_exists [untranslatable]

; OMEGA_001_01_puzzle_work_bound (matches Coq: Theorem OMEGA_001_01_puzzle_work_bound)
(assert (= true true)) ; OMEGA_001_01_puzzle_work_bound [untranslatable]

; OMEGA_001_02_puzzle_verify_cheap (matches Coq: Theorem OMEGA_001_02_puzzle_verify_cheap)
(assert (= true true)) ; OMEGA_001_02_puzzle_verify_cheap [untranslatable]

; OMEGA_001_03_puzzle_unforgeable (matches Coq: Theorem OMEGA_001_03_puzzle_unforgeable)
(assert (= true true)) ; OMEGA_001_03_puzzle_unforgeable [untranslatable]

; OMEGA_001_04_puzzle_fresh (matches Coq: Theorem OMEGA_001_04_puzzle_fresh)
(assert (= true true)) ; OMEGA_001_04_puzzle_fresh [untranslatable]

; OMEGA_001_05_puzzle_difficulty_adaptive (matches Coq: Theorem OMEGA_001_05_puzzle_difficulty_adaptive)
(assert (= true true)) ; OMEGA_001_05_puzzle_difficulty_adaptive [untranslatable]

; OMEGA_001_06_puzzle_non_parallelizable (matches Coq: Theorem OMEGA_001_06_puzzle_non_parallelizable)
(assert (= true true)) ; OMEGA_001_06_puzzle_non_parallelizable [untranslatable]

; OMEGA_001_07_puzzle_stateless (matches Coq: Theorem OMEGA_001_07_puzzle_stateless)
(assert (= server_state_pre_verify 0)) ; OMEGA_001_07_puzzle_stateless

; pow2_ge_1 (matches Coq: Lemma pow2_ge_1)
(assert (= true true)) ; pow2_ge_1 [untranslatable]

; pow2_ge_2 (matches Coq: Lemma pow2_ge_2)
(assert (= true true)) ; pow2_ge_2 [untranslatable]

; OMEGA_001_08_puzzle_asymmetric (matches Coq: Theorem OMEGA_001_08_puzzle_asymmetric)
(assert (= true true)) ; OMEGA_001_08_puzzle_asymmetric [untranslatable]

; OMEGA_001_09_token_bucket_correct (matches Coq: Theorem OMEGA_001_09_token_bucket_correct)
(assert (= true true)) ; OMEGA_001_09_token_bucket_correct [untranslatable]

; OMEGA_001_10_rate_limit_bound (matches Coq: Theorem OMEGA_001_10_rate_limit_bound)
(assert (= true true)) ; OMEGA_001_10_rate_limit_bound [untranslatable]

; OMEGA_001_11_rate_limit_fair (matches Coq: Theorem OMEGA_001_11_rate_limit_fair)
(assert (= true true)) ; OMEGA_001_11_rate_limit_fair [untranslatable]

; OMEGA_001_12_no_starvation (matches Coq: Theorem OMEGA_001_12_no_starvation)
(assert (= true true)) ; OMEGA_001_12_no_starvation [untranslatable]

; OMEGA_001_13_burst_bounded (matches Coq: Theorem OMEGA_001_13_burst_bounded)
(assert (= true true)) ; OMEGA_001_13_burst_bounded [untranslatable]

; OMEGA_001_14_rate_adaptive (matches Coq: Theorem OMEGA_001_14_rate_adaptive)
(assert (= true true)) ; OMEGA_001_14_rate_adaptive [untranslatable]

; OMEGA_001_15_rate_composition (matches Coq: Theorem OMEGA_001_15_rate_composition)
(assert (= true true)) ; OMEGA_001_15_rate_composition [untranslatable]

; OMEGA_001_16_cap_unforgeable (matches Coq: Theorem OMEGA_001_16_cap_unforgeable)
(assert (= true true)) ; OMEGA_001_16_cap_unforgeable [untranslatable]

; OMEGA_001_17_cap_required (matches Coq: Theorem OMEGA_001_17_cap_required)
(assert (= true true)) ; OMEGA_001_17_cap_required [untranslatable]

; OMEGA_001_18_cap_attenuate (matches Coq: Theorem OMEGA_001_18_cap_attenuate)
(assert (= true true)) ; OMEGA_001_18_cap_attenuate [untranslatable]

; OMEGA_001_19_cap_revocable (matches Coq: Theorem OMEGA_001_19_cap_revocable)
(assert (= true true)) ; OMEGA_001_19_cap_revocable [untranslatable]

; OMEGA_001_20_cap_bound_target (matches Coq: Theorem OMEGA_001_20_cap_bound_target)
(assert (= true true)) ; OMEGA_001_20_cap_bound_target [untranslatable]

; OMEGA_001_21_cap_delegation_safe (matches Coq: Theorem OMEGA_001_21_cap_delegation_safe)
(assert (= true true)) ; OMEGA_001_21_cap_delegation_safe [untranslatable]

; OMEGA_001_22_cap_no_amplification (matches Coq: Theorem OMEGA_001_22_cap_no_amplification)
(assert (= true true)) ; OMEGA_001_22_cap_no_amplification [untranslatable]

; OMEGA_001_23_cap_no_reflection (matches Coq: Theorem OMEGA_001_23_cap_no_reflection)
(assert (= true true)) ; OMEGA_001_23_cap_no_reflection [untranslatable]

; OMEGA_001_24_syn_cookie_stateless (matches Coq: Theorem OMEGA_001_24_syn_cookie_stateless)
(assert (= syn_cookie_state_required 0)) ; OMEGA_001_24_syn_cookie_stateless

; OMEGA_001_25_syn_cookie_unforgeable (matches Coq: Theorem OMEGA_001_25_syn_cookie_unforgeable)
(assert (= true true)) ; OMEGA_001_25_syn_cookie_unforgeable [untranslatable]

; OMEGA_001_26_syn_cookie_verify (matches Coq: Theorem OMEGA_001_26_syn_cookie_verify)
(assert (= true true)) ; OMEGA_001_26_syn_cookie_verify [untranslatable]

; OMEGA_001_27_syn_cookie_replay_prevent (matches Coq: Theorem OMEGA_001_27_syn_cookie_replay_prevent)
(assert (= true true)) ; OMEGA_001_27_syn_cookie_replay_prevent [untranslatable]

; OMEGA_001_28_syn_flood_mitigated (matches Coq: Theorem OMEGA_001_28_syn_flood_mitigated)
(assert (= true true)) ; OMEGA_001_28_syn_flood_mitigated [untranslatable]

; OMEGA_001_29_legitimate_connections (matches Coq: Theorem OMEGA_001_29_legitimate_connections)
(assert (= true true)) ; OMEGA_001_29_legitimate_connections [untranslatable]

; OMEGA_001_30_hash_collision_resistant (matches Coq: Theorem OMEGA_001_30_hash_collision_resistant)
(assert (= true true)) ; OMEGA_001_30_hash_collision_resistant [untranslatable]

; OMEGA_001_31_regex_terminates (matches Coq: Theorem OMEGA_001_31_regex_terminates)
(assert (= true true)) ; OMEGA_001_31_regex_terminates [untranslatable]

; OMEGA_001_32_decompression_bounded (matches Coq: Theorem OMEGA_001_32_decompression_bounded)
(assert (= true true)) ; OMEGA_001_32_decompression_bounded [untranslatable]

; OMEGA_001_33_json_parse_bounded (matches Coq: Theorem OMEGA_001_33_json_parse_bounded)
(assert (= true true)) ; OMEGA_001_33_json_parse_bounded [untranslatable]

; OMEGA_001_34_xml_parse_bounded (matches Coq: Theorem OMEGA_001_34_xml_parse_bounded)
(assert (= true true)) ; OMEGA_001_34_xml_parse_bounded [untranslatable]

; OMEGA_001_35_no_algorithmic_dos (matches Coq: Theorem OMEGA_001_35_no_algorithmic_dos)
(assert (= true true)) ; OMEGA_001_35_no_algorithmic_dos [untranslatable]

; Verify all assertions are satisfiable
(check-sat)
(exit)
